c b=2,c=531
p cnf 13 23
1 2 -4 0
2 -5 0
2 -8 0
2 -13 0
1 -2 4 0
1 -2 5 0
-2 8 0
-2 13 0
1 -3 0
1 -6 0
1 -7 0
1 -12 0
-1 2 4 0
2 -6 0
-1 -2 -4 0
-1 -2 6 0
-1 3 0
-1 -5 0
-1 7 0
-1 12 0
-9 0
-10 0
-11 0
